############################## T =  4
Academic license - for non-commercial use only
Changed value of parameter lazyConstraints to 1
   Prev: 0  Min: 0  Max: 1  Default: 0
Optimize a model with 773 rows, 48 columns and 2688 nonzeros
Model has 168 quadratic objective terms
Variable types: 0 continuous, 48 integer (48 binary)
Coefficient statistics:
  Matrix range     [1e+00, 1e+00]
  Objective range  [0e+00, 0e+00]
  QObjective range [1e+01, 3e+04]
  Bounds range     [1e+00, 1e+00]
  RHS range        [1e+00, 2e+00]
Found heuristic solution: objective 32950.000000
Presolve removed 153 rows and 8 columns
Presolve time: 0.01s
Presolved: 788 rows, 208 columns, 2512 nonzeros
Variable types: 0 continuous, 208 integer (208 binary)

Root relaxation: objective 0.000000e+00, 13 iterations, 0.00 seconds

    Nodes    |    Current Node    |     Objective Bounds      |     Work
 Expl Unexpl |  Obj  Depth IntInf | Incumbent    BestBd   Gap | It/Node Time

     0     0    0.00000    0    8 32950.0000    0.00000   100%     -    0s
     0     0    0.00000    0    8 32950.0000    0.00000   100%     -    0s
H    0     0                    23634.000000    0.00000   100%     -    0s
     0     0    0.00000    0   10 23634.0000    0.00000   100%     -    0s
     0     0    0.00000    0    8 23634.0000    0.00000   100%     -    0s
     0     0    0.00000    0    8 23634.0000    0.00000   100%     -    0s
     0     0    0.00000    0    8 23634.0000    0.00000   100%     -    0s
     0     0    0.00000    0    8 23634.0000    0.00000   100%     -    0s
     0     2    0.00000    0    8 23634.0000    0.00000   100%     -    0s
*  154    59               8    22205.000000 4674.65217  78.9%   5.5    0s
*  159    59              11    22189.000000 4674.65217  78.9%   5.4    0s
*  263    79              13    21805.000000 5330.00000  75.6%   5.4    0s
H  580    84                    21790.000000 8853.75000  59.4%   5.5    0s
*  638    93              10    21789.000000 9401.00000  56.9%   5.4    0s
*  671    62               9    21299.000000 10247.0000  51.9%   5.5    0s
*  719    70               9    21277.000000 10247.0000  51.8%   5.4    0s

Cutting planes:
  Gomory: 1
  Cover: 2
  MIR: 1
  Inf proof: 1
  Zero half: 9

Explored 980 nodes (5444 simplex iterations) in 0.54 seconds
Thread count was 4 (of 4 available processors)

Solution count 9: 21277 21299 21789 ... 32950

Optimal solution found (tolerance 1.00e-04)
Best objective 2.127700000000e+04, best bound 2.127700000000e+04, gap 0.0000%

Optimal cost: 21277
print out solution in ascending timestep
timestep  0 :  82187
timestep  0 :  131267
timestep  1 :  50897
timestep  2 :  130733
timestep  3 :  99281
{(0, 0): 0.0, (0, 1): 0.0, (0, 2): 1.0, (0, 3): 1.0, (1, 0): 0.0, (1, 1): 0.9999999999999997, (1, 2): 1.0, (1, 3): 1.0, (2, 0): 0.0, (2, 1): -0.0, (2, 2): 0.0, (2, 3): 1.0, (3, 0): 0.0, (3, 1): 0.0, (3, 2): 0.0, (3, 3): 1.0}
SOLVED AT T =  4
